57
18
0 18 20 23 24 26 27 34 37 38 39 40 41 43 44 45 47 48 49 50 51 52 53 54
1 18 20 24 27 28 31 34 35 37 38 39 40 41 44 48 49 50 51 53 54
2 20 29 31 32 34 36 38 39 40 44 45 47 48 49 51 52 53 54
3 20 24 25 26 29 34 36 39 40 41 44 45 46 48 49 50 51 53
4 18 20 23 24 26 27 30 31 35 36 38 39 40 42 43 44 45 47 49 51 55 56
5 18 20 22 23 24 27 29 31 34 35 38 39 40 41 42 43 47 49 50 51
6 18 20 23 27 29 31 33 34 38 39 41 42 43 44 46 50 51 54 55
7 18 23 26 27 28 31 33 34 38 39 40 41 42 44 48 50 51 53 54
8 18 20 24 36 37 40 41 42 44 49 52 54
9 29 31 37 38 43 45 50 52 53 54
10 22 23 27 28 31 34 36 40 41 42 45 47 48 49 50 51 52 55
11 18 19 20 27 34 39 44 49 50 55
12 21 27 39 45 47 52 54 55
13 18 20 22 23 27 29 35 49 55
14 21 23 28 31 45 48
15 21 22 27 29 32 35 38 39 47 53
16 24 37 40 51 54
17 35
